NAME /Users/henri/Research/solvers/instances/idol-instances/robust/collection/spp_dkp_Lefebvre_et_al_2026/shortest_path_9_6/models/uncertain_ctr/model
ROWS
 N  OBJ
 E  flow_cons_inner_nodes[0]
 E  flow_cons_inner_nodes[1]
 E  flow_cons_inner_nodes[2]
 E  flow_cons_inner_nodes[3]
 E  flow_cons_inner_nodes[4]
 E  flow_cons_inner_nodes[6]
 E  flow_cons_inner_nodes[7]
 E  flow_cons_source
 E  flow_cons_target
 G  c_19825
COLUMNS
    z          OBJ        1
    z          c_19825    1
    MARKER    'MARKER'                 'INTORG'
    y[0,1]     OBJ        0
    y[0,1]     flow_cons_inner_nodes[1] 1
    y[0,1]     c_19825    -62.27
    y[0,1]     flow_cons_inner_nodes[0] -1
    y[0,2]     OBJ        0
    y[0,2]     flow_cons_inner_nodes[2] 1
    y[0,2]     c_19825    -35
    y[0,2]     flow_cons_inner_nodes[0] -1
    y[0,3]     OBJ        0
    y[0,3]     flow_cons_inner_nodes[3] 1
    y[0,3]     c_19825    -68.88
    y[0,3]     flow_cons_inner_nodes[0] -1
    y[0,4]     OBJ        0
    y[0,4]     flow_cons_inner_nodes[4] 1
    y[0,4]     c_19825    -17.09
    y[0,4]     flow_cons_inner_nodes[0] -1
    y[0,5]     OBJ        0
    y[0,5]     flow_cons_source -1
    y[0,5]     c_19825    -60.75
    y[0,5]     flow_cons_inner_nodes[0] -1
    y[0,6]     OBJ        0
    y[0,6]     c_19825    -24.21
    y[0,6]     flow_cons_inner_nodes[6] 1
    y[0,6]     flow_cons_inner_nodes[0] -1
    y[0,7]     OBJ        0
    y[0,7]     flow_cons_inner_nodes[7] 1
    y[0,7]     c_19825    -67.36
    y[0,7]     flow_cons_inner_nodes[0] -1
    y[0,8]     OBJ        0
    y[0,8]     flow_cons_target 1
    y[0,8]     c_19825    -61.47
    y[0,8]     flow_cons_inner_nodes[0] -1
    y[1,0]     OBJ        0
    y[1,0]     flow_cons_inner_nodes[1] -1
    y[1,0]     c_19825    -62.27
    y[1,0]     flow_cons_inner_nodes[0] 1
    y[1,2]     OBJ        0
    y[1,2]     c_19825    -75.06
    y[1,2]     flow_cons_inner_nodes[2] 1
    y[1,2]     flow_cons_inner_nodes[1] -1
    y[1,3]     OBJ        0
    y[1,3]     c_19825    -37.2
    y[1,3]     flow_cons_inner_nodes[3] 1
    y[1,3]     flow_cons_inner_nodes[1] -1
    y[1,4]     OBJ        0
    y[1,4]     c_19825    -67.18
    y[1,4]     flow_cons_inner_nodes[4] 1
    y[1,4]     flow_cons_inner_nodes[1] -1
    y[1,6]     OBJ        0
    y[1,6]     c_19825    -63.41
    y[1,6]     flow_cons_inner_nodes[6] 1
    y[1,6]     flow_cons_inner_nodes[1] -1
    y[1,7]     OBJ        0
    y[1,7]     c_19825    -13.34
    y[1,7]     flow_cons_inner_nodes[7] 1
    y[1,7]     flow_cons_inner_nodes[1] -1
    y[1,8]     OBJ        0
    y[1,8]     c_19825    -8.54
    y[1,8]     flow_cons_target 1
    y[1,8]     flow_cons_inner_nodes[1] -1
    y[2,0]     OBJ        0
    y[2,0]     flow_cons_inner_nodes[2] -1
    y[2,0]     c_19825    -35
    y[2,0]     flow_cons_inner_nodes[0] 1
    y[2,1]     OBJ        0
    y[2,1]     c_19825    -75.06
    y[2,1]     flow_cons_inner_nodes[2] -1
    y[2,1]     flow_cons_inner_nodes[1] 1
    y[2,3]     OBJ        0
    y[2,3]     c_19825    -62.43
    y[2,3]     flow_cons_inner_nodes[3] 1
    y[2,3]     flow_cons_inner_nodes[2] -1
    y[2,4]     OBJ        0
    y[2,4]     c_19825    -51.62
    y[2,4]     flow_cons_inner_nodes[4] 1
    y[2,4]     flow_cons_inner_nodes[2] -1
    y[2,5]     OBJ        0
    y[2,5]     c_19825    -29
    y[2,5]     flow_cons_source -1
    y[2,5]     flow_cons_inner_nodes[2] -1
    y[2,6]     OBJ        0
    y[2,6]     c_19825    -59.2
    y[2,6]     flow_cons_inner_nodes[6] 1
    y[2,6]     flow_cons_inner_nodes[2] -1
    y[2,7]     OBJ        0
    y[2,7]     c_19825    -73.76
    y[2,7]     flow_cons_inner_nodes[7] 1
    y[2,7]     flow_cons_inner_nodes[2] -1
    y[3,0]     OBJ        0
    y[3,0]     flow_cons_inner_nodes[3] -1
    y[3,0]     c_19825    -68.88
    y[3,0]     flow_cons_inner_nodes[0] 1
    y[3,1]     OBJ        0
    y[3,1]     c_19825    -37.2
    y[3,1]     flow_cons_inner_nodes[3] -1
    y[3,1]     flow_cons_inner_nodes[1] 1
    y[3,2]     OBJ        0
    y[3,2]     c_19825    -62.43
    y[3,2]     flow_cons_inner_nodes[3] -1
    y[3,2]     flow_cons_inner_nodes[2] 1
    y[3,5]     OBJ        0
    y[3,5]     c_19825    -53.15
    y[3,5]     flow_cons_source -1
    y[3,5]     flow_cons_inner_nodes[3] -1
    y[3,7]     OBJ        0
    y[3,7]     c_19825    -25.5
    y[3,7]     flow_cons_inner_nodes[7] 1
    y[3,7]     flow_cons_inner_nodes[3] -1
    y[3,8]     OBJ        0
    y[3,8]     c_19825    -45.49
    y[3,8]     flow_cons_target 1
    y[3,8]     flow_cons_inner_nodes[3] -1
    y[4,0]     OBJ        0
    y[4,0]     flow_cons_inner_nodes[4] -1
    y[4,0]     c_19825    -17.09
    y[4,0]     flow_cons_inner_nodes[0] 1
    y[4,1]     OBJ        0
    y[4,1]     c_19825    -67.18
    y[4,1]     flow_cons_inner_nodes[4] -1
    y[4,1]     flow_cons_inner_nodes[1] 1
    y[4,2]     OBJ        0
    y[4,2]     c_19825    -51.62
    y[4,2]     flow_cons_inner_nodes[4] -1
    y[4,2]     flow_cons_inner_nodes[2] 1
    y[4,6]     OBJ        0
    y[4,6]     c_19825    -9.49
    y[4,6]     flow_cons_inner_nodes[6] 1
    y[4,6]     flow_cons_inner_nodes[4] -1
    y[4,7]     OBJ        0
    y[4,7]     c_19825    -75
    y[4,7]     flow_cons_inner_nodes[7] 1
    y[4,7]     flow_cons_inner_nodes[4] -1
    y[4,8]     OBJ        0
    y[4,8]     c_19825    -64.2
    y[4,8]     flow_cons_target 1
    y[4,8]     flow_cons_inner_nodes[4] -1
    y[5,0]     OBJ        0
    y[5,0]     flow_cons_source 1
    y[5,0]     c_19825    -60.75
    y[5,0]     flow_cons_inner_nodes[0] 1
    y[5,2]     OBJ        0
    y[5,2]     c_19825    -29
    y[5,2]     flow_cons_source 1
    y[5,2]     flow_cons_inner_nodes[2] 1
    y[5,3]     OBJ        0
    y[5,3]     c_19825    -53.15
    y[5,3]     flow_cons_source 1
    y[5,3]     flow_cons_inner_nodes[3] 1
    y[5,7]     OBJ        0
    y[5,7]     c_19825    -73.16
    y[5,7]     flow_cons_source 1
    y[5,7]     flow_cons_inner_nodes[7] 1
    y[6,0]     OBJ        0
    y[6,0]     c_19825    -24.21
    y[6,0]     flow_cons_inner_nodes[6] -1
    y[6,0]     flow_cons_inner_nodes[0] 1
    y[6,1]     OBJ        0
    y[6,1]     c_19825    -63.41
    y[6,1]     flow_cons_inner_nodes[6] -1
    y[6,1]     flow_cons_inner_nodes[1] 1
    y[6,2]     OBJ        0
    y[6,2]     c_19825    -59.2
    y[6,2]     flow_cons_inner_nodes[6] -1
    y[6,2]     flow_cons_inner_nodes[2] 1
    y[6,4]     OBJ        0
    y[6,4]     c_19825    -9.49
    y[6,4]     flow_cons_inner_nodes[6] -1
    y[6,4]     flow_cons_inner_nodes[4] 1
    y[6,7]     OBJ        0
    y[6,7]     flow_cons_inner_nodes[7] 1
    y[6,7]     c_19825    -72.56
    y[6,7]     flow_cons_inner_nodes[6] -1
    y[6,8]     OBJ        0
    y[6,8]     flow_cons_target 1
    y[6,8]     c_19825    -59.4
    y[6,8]     flow_cons_inner_nodes[6] -1
    y[7,0]     OBJ        0
    y[7,0]     flow_cons_inner_nodes[7] -1
    y[7,0]     c_19825    -67.36
    y[7,0]     flow_cons_inner_nodes[0] 1
    y[7,1]     OBJ        0
    y[7,1]     c_19825    -13.34
    y[7,1]     flow_cons_inner_nodes[7] -1
    y[7,1]     flow_cons_inner_nodes[1] 1
    y[7,2]     OBJ        0
    y[7,2]     c_19825    -73.76
    y[7,2]     flow_cons_inner_nodes[7] -1
    y[7,2]     flow_cons_inner_nodes[2] 1
    y[7,3]     OBJ        0
    y[7,3]     c_19825    -25.5
    y[7,3]     flow_cons_inner_nodes[7] -1
    y[7,3]     flow_cons_inner_nodes[3] 1
    y[7,4]     OBJ        0
    y[7,4]     c_19825    -75
    y[7,4]     flow_cons_inner_nodes[7] -1
    y[7,4]     flow_cons_inner_nodes[4] 1
    y[7,5]     OBJ        0
    y[7,5]     c_19825    -73.16
    y[7,5]     flow_cons_source -1
    y[7,5]     flow_cons_inner_nodes[7] -1
    y[7,6]     OBJ        0
    y[7,6]     flow_cons_inner_nodes[7] -1
    y[7,6]     c_19825    -72.56
    y[7,6]     flow_cons_inner_nodes[6] 1
    y[7,8]     OBJ        0
    y[7,8]     c_19825    -21.84
    y[7,8]     flow_cons_target 1
    y[7,8]     flow_cons_inner_nodes[7] -1
    y[8,0]     OBJ        0
    y[8,0]     flow_cons_target -1
    y[8,0]     c_19825    -61.47
    y[8,0]     flow_cons_inner_nodes[0] 1
    y[8,1]     OBJ        0
    y[8,1]     c_19825    -8.54
    y[8,1]     flow_cons_target -1
    y[8,1]     flow_cons_inner_nodes[1] 1
    y[8,3]     OBJ        0
    y[8,3]     c_19825    -45.49
    y[8,3]     flow_cons_target -1
    y[8,3]     flow_cons_inner_nodes[3] 1
    y[8,4]     OBJ        0
    y[8,4]     c_19825    -64.2
    y[8,4]     flow_cons_target -1
    y[8,4]     flow_cons_inner_nodes[4] 1
    y[8,6]     OBJ        0
    y[8,6]     flow_cons_target -1
    y[8,6]     c_19825    -59.4
    y[8,6]     flow_cons_inner_nodes[6] 1
    y[8,7]     OBJ        0
    y[8,7]     c_19825    -21.84
    y[8,7]     flow_cons_target -1
    y[8,7]     flow_cons_inner_nodes[7] 1
    MARKER    'MARKER'                 'INTEND'
RHS
    RHS       flow_cons_inner_nodes[0] -0
    RHS       flow_cons_inner_nodes[1] -0
    RHS       flow_cons_inner_nodes[2] -0
    RHS       flow_cons_inner_nodes[3] -0
    RHS       flow_cons_inner_nodes[4] -0
    RHS       flow_cons_inner_nodes[6] -0
    RHS       flow_cons_inner_nodes[7] -0
    RHS       flow_cons_source 1
    RHS       flow_cons_target 1
    RHS       c_19825    -0
BOUNDS
 LI BND       y[0,1]     0
 UI BND       y[0,1]     1
 LI BND       y[0,2]     0
 UI BND       y[0,2]     1
 LI BND       y[0,3]     0
 UI BND       y[0,3]     1
 LI BND       y[0,4]     0
 UI BND       y[0,4]     1
 LI BND       y[0,5]     0
 UI BND       y[0,5]     1
 LI BND       y[0,6]     0
 UI BND       y[0,6]     1
 LI BND       y[0,7]     0
 UI BND       y[0,7]     1
 LI BND       y[0,8]     0
 UI BND       y[0,8]     1
 LI BND       y[1,0]     0
 UI BND       y[1,0]     1
 LI BND       y[1,2]     0
 UI BND       y[1,2]     1
 LI BND       y[1,3]     0
 UI BND       y[1,3]     1
 LI BND       y[1,4]     0
 UI BND       y[1,4]     1
 LI BND       y[1,6]     0
 UI BND       y[1,6]     1
 LI BND       y[1,7]     0
 UI BND       y[1,7]     1
 LI BND       y[1,8]     0
 UI BND       y[1,8]     1
 LI BND       y[2,0]     0
 UI BND       y[2,0]     1
 LI BND       y[2,1]     0
 UI BND       y[2,1]     1
 LI BND       y[2,3]     0
 UI BND       y[2,3]     1
 LI BND       y[2,4]     0
 UI BND       y[2,4]     1
 LI BND       y[2,5]     0
 UI BND       y[2,5]     1
 LI BND       y[2,6]     0
 UI BND       y[2,6]     1
 LI BND       y[2,7]     0
 UI BND       y[2,7]     1
 LI BND       y[3,0]     0
 UI BND       y[3,0]     1
 LI BND       y[3,1]     0
 UI BND       y[3,1]     1
 LI BND       y[3,2]     0
 UI BND       y[3,2]     1
 LI BND       y[3,5]     0
 UI BND       y[3,5]     1
 LI BND       y[3,7]     0
 UI BND       y[3,7]     1
 LI BND       y[3,8]     0
 UI BND       y[3,8]     1
 LI BND       y[4,0]     0
 UI BND       y[4,0]     1
 LI BND       y[4,1]     0
 UI BND       y[4,1]     1
 LI BND       y[4,2]     0
 UI BND       y[4,2]     1
 LI BND       y[4,6]     0
 UI BND       y[4,6]     1
 LI BND       y[4,7]     0
 UI BND       y[4,7]     1
 LI BND       y[4,8]     0
 UI BND       y[4,8]     1
 LI BND       y[5,0]     0
 UI BND       y[5,0]     1
 LI BND       y[5,2]     0
 UI BND       y[5,2]     1
 LI BND       y[5,3]     0
 UI BND       y[5,3]     1
 LI BND       y[5,7]     0
 UI BND       y[5,7]     1
 LI BND       y[6,0]     0
 UI BND       y[6,0]     1
 LI BND       y[6,1]     0
 UI BND       y[6,1]     1
 LI BND       y[6,2]     0
 UI BND       y[6,2]     1
 LI BND       y[6,4]     0
 UI BND       y[6,4]     1
 LI BND       y[6,7]     0
 UI BND       y[6,7]     1
 LI BND       y[6,8]     0
 UI BND       y[6,8]     1
 LI BND       y[7,0]     0
 UI BND       y[7,0]     1
 LI BND       y[7,1]     0
 UI BND       y[7,1]     1
 LI BND       y[7,2]     0
 UI BND       y[7,2]     1
 LI BND       y[7,3]     0
 UI BND       y[7,3]     1
 LI BND       y[7,4]     0
 UI BND       y[7,4]     1
 LI BND       y[7,5]     0
 UI BND       y[7,5]     1
 LI BND       y[7,6]     0
 UI BND       y[7,6]     1
 LI BND       y[7,8]     0
 UI BND       y[7,8]     1
 LI BND       y[8,0]     0
 UI BND       y[8,0]     1
 LI BND       y[8,1]     0
 UI BND       y[8,1]     1
 LI BND       y[8,3]     0
 UI BND       y[8,3]     1
 LI BND       y[8,4]     0
 UI BND       y[8,4]     1
 LI BND       y[8,6]     0
 UI BND       y[8,6]     1
 LI BND       y[8,7]     0
 UI BND       y[8,7]     1
 LO BND       z          0
 UP BND       z          3478.9
ENDATA
